p cnf 50 70
17 -23 25 0
26 21 17 0
-50 -16 -23 0
-36 -18 49 0
-19 -22 -33 0
27 -29 44 0
-6 -11 -4 0
36 -30 8 0
24 -40 -30 0
40 -17 -20 0
-44 -8 -31 0
-35 -20 -32 0
29 -13 49 0
19 -46 -20 0
44 -43 31 0
-39 7 20 0
16 -27 17 0
-30 12 -4 0
-26 -37 11 0
-25 -49 32 0
-19 -50 12 0
-14 22 24 0
40 -17 -27 0
35 -37 11 0
14 17 -40 0
-17 -14 23 0
-3 -12 47 0
-11 36 -14 0
-26 47 -32 0
48 6 42 0
35 -19 32 0
-11 -34 12 0
-47 -29 50 0
40 19 8 0
-21 -40 -47 0
-6 -25 -34 0
-7 25 -28 0
20 -43 2 0
-38 27 -9 0
-19 -24 17 0
-6 -15 43 0
22 -34 -48 0
46 -2 -49 0
-46 6 -2 0
-42 -14 33 0
-50 44 16 0
7 -4 11 0
41 -13 -36 0
-33 -4 -38 0
15 -40 23 0
x 1 -2 8 11 -12 -14 18 21 23 24 25 26 -27 -31 -33 34 37 -38 -41 42 -43 -50 0
x 1 4 5 -6 -7 8 10 13 -14 15 18 19 -20 21 -24 25 -26 27 30 34 -35 -36 37 -38 -40 41 -42 45 -47 -48 0
x 2 -4 5 -8 -9 12 14 -15 -17 20 -22 -24 -25 27 -28 -29 -30 33 36 39 40 42 45 -46 48 49 50 0
x 1 -2 -5 7 8 9 -13 14 -17 -20 21 -23 -28 31 -33 34 -35 39 42 45 -46 47 48 49 -50 0
x 1 3 -4 -7 -12 -13 -14 -15 -17 18 19 22 -25 29 30 33 -37 39 -40 -41 -42 -46 48 0
x 3 5 6 8 -9 -11 -13 14 -16 17 18 -22 -23 24 -25 -28 -29 30 -32 -34 37 39 40 -42 -50 0
x -1 -4 9 10 13 14 18 -21 22 -23 -25 27 29 -32 33 36 37 39 41 -42 -45 48 -49 0
x 3 -5 -6 -9 -12 14 15 -17 -18 19 -21 23 24 25 26 28 30 31 35 37 38 -42 43 44 46 49 -50 0
x 1 -2 -3 -5 -7 -10 -11 12 -16 17 -24 -25 -26 -28 -29 -30 -31 36 -37 42 -44 46 -47 -48 50 0
x 3 -4 -5 8 12 13 16 -17 -18 22 23 24 25 -26 -27 28 -29 31 -34 37 38 -39 -42 43 -44 47 48 0
x 1 2 -3 4 5 -7 9 11 -12 17 18 19 -22 -24 -25 27 29 30 -33 34 -36 -38 39 43 47 -49 0
x -4 -5 7 8 -11 15 16 -17 18 19 20 21 -22 -23 -24 -26 27 34 -36 37 38 -41 -42 43 44 -47 49 0
x -9 13 -15 -19 -21 -23 25 -26 -28 30 31 33 -34 -35 36 -43 -49 50 0
x 2 -6 7 -8 9 11 13 -18 -19 -20 21 -24 26 -27 28 29 30 31 -32 33 34 35 36 37 -38 39 41 -42 43 -46 49 -50 0
x -2 4 -5 -6 9 -10 -12 13 -15 -16 -20 -21 -22 -26 27 29 32 -33 -34 -35 -37 38 39 42 43 46 47 48 0
x 3 -7 8 -10 -13 -16 -18 21 -23 26 -30 31 -33 35 -37 -39 40 -41 -42 -43 -44 45 46 0
x 2 4 5 6 -7 9 -16 -17 19 -21 22 -23 -24 26 28 -29 31 32 33 37 40 -41 42 43 -48 -49 -50 0
x 5 6 -8 9 -12 14 -16 -18 -19 22 -24 -27 28 29 31 -33 35 -38 -40 -41 45 46 -47 48 -50 0
x -2 -5 10 13 14 -16 17 -20 25 27 -30 -31 32 33 36 -37 -38 39 40 -42 -43 45 -46 48 -50 0
x -1 -3 -5 -12 -13 -18 22 -23 24 -29 30 -31 -32 35 -39 -41 -42 43 -46 48 0
